p wcnf 560 1456
w -2 0.367879 0
w 2 2.718282 0
w -3 0.367879 0
w 3 2.718282 0
w -5 0.367879 0
w 5 2.718282 0
w -6 0.367879 0
w 6 2.718282 0
w -8 0.367879 0
w 8 2.718282 0
w -9 0.367879 0
w 9 2.718282 0
w -11 0.367879 0
w 11 2.718282 0
w -12 0.367879 0
w 12 2.718282 0
w -14 0.367879 0
w 14 2.718282 0
w -15 0.367879 0
w 15 2.718282 0
w -17 0.367879 0
w 17 2.718282 0
w -18 0.367879 0
w 18 2.718282 0
w -20 0.367879 0
w 20 2.718282 0
w -21 0.367879 0
w 21 2.718282 0
w -23 0.367879 0
w 23 2.718282 0
w -24 0.367879 0
w 24 2.718282 0
w -26 0.367879 0
w 26 2.718282 0
w -27 0.367879 0
w 27 2.718282 0
w -29 0.367879 0
w 29 2.718282 0
w -30 0.367879 0
w 30 2.718282 0
w -32 0.367879 0
w 32 2.718282 0
w -33 0.367879 0
w 33 2.718282 0
w -35 0.367879 0
w 35 2.718282 0
w -36 0.367879 0
w 36 2.718282 0
w -38 0.367879 0
w 38 2.718282 0
w -39 0.367879 0
w 39 2.718282 0
w -41 0.367879 0
w 41 2.718282 0
w -43 0.367879 0
w 43 2.718282 0
w -44 0.367879 0
w 44 2.718282 0
w -46 0.367879 0
w 46 2.718282 0
w -47 0.367879 0
w 47 2.718282 0
w -49 0.367879 0
w 49 2.718282 0
w -50 0.367879 0
w 50 2.718282 0
w -52 0.367879 0
w 52 2.718282 0
w -53 0.367879 0
w 53 2.718282 0
w -55 0.367879 0
w 55 2.718282 0
w -56 0.367879 0
w 56 2.718282 0
w -58 0.367879 0
w 58 2.718282 0
w -59 0.367879 0
w 59 2.718282 0
w -61 0.367879 0
w 61 2.718282 0
w -62 0.367879 0
w 62 2.718282 0
w -64 0.367879 0
w 64 2.718282 0
w -65 0.367879 0
w 65 2.718282 0
w -67 0.367879 0
w 67 2.718282 0
w -68 0.367879 0
w 68 2.718282 0
w -70 0.367879 0
w 70 2.718282 0
w -71 0.367879 0
w 71 2.718282 0
w -73 0.367879 0
w 73 2.718282 0
w -74 0.367879 0
w 74 2.718282 0
w -76 0.367879 0
w 76 2.718282 0
w -77 0.367879 0
w 77 2.718282 0
w -79 0.367879 0
w 79 2.718282 0
w -80 0.367879 0
w 80 2.718282 0
w -82 0.367879 0
w 82 2.718282 0
w -84 0.367879 0
w 84 2.718282 0
w -85 0.367879 0
w 85 2.718282 0
w -87 0.367879 0
w 87 2.718282 0
w -88 0.367879 0
w 88 2.718282 0
w -90 0.367879 0
w 90 2.718282 0
w -91 0.367879 0
w 91 2.718282 0
w -93 0.367879 0
w 93 2.718282 0
w -94 0.367879 0
w 94 2.718282 0
w -96 0.367879 0
w 96 2.718282 0
w -97 0.367879 0
w 97 2.718282 0
w -99 0.367879 0
w 99 2.718282 0
w -100 0.367879 0
w 100 2.718282 0
w -102 0.367879 0
w 102 2.718282 0
w -103 0.367879 0
w 103 2.718282 0
w -105 0.367879 0
w 105 2.718282 0
w -106 0.367879 0
w 106 2.718282 0
w -108 0.367879 0
w 108 2.718282 0
w -109 0.367879 0
w 109 2.718282 0
w -111 0.367879 0
w 111 2.718282 0
w -112 0.367879 0
w 112 2.718282 0
w -114 0.367879 0
w 114 2.718282 0
w -115 0.367879 0
w 115 2.718282 0
w -117 0.367879 0
w 117 2.718282 0
w -118 0.367879 0
w 118 2.718282 0
w -120 0.367879 0
w 120 2.718282 0
w -121 0.367879 0
w 121 2.718282 0
w -123 0.367879 0
w 123 2.718282 0
w -125 0.367879 0
w 125 2.718282 0
w -126 0.367879 0
w 126 2.718282 0
w -128 0.367879 0
w 128 2.718282 0
w -129 0.367879 0
w 129 2.718282 0
w -131 0.367879 0
w 131 2.718282 0
w -132 0.367879 0
w 132 2.718282 0
w -134 0.367879 0
w 134 2.718282 0
w -135 0.367879 0
w 135 2.718282 0
w -137 0.367879 0
w 137 2.718282 0
w -138 0.367879 0
w 138 2.718282 0
w -140 0.367879 0
w 140 2.718282 0
w -141 0.367879 0
w 141 2.718282 0
w -143 0.367879 0
w 143 2.718282 0
w -144 0.367879 0
w 144 2.718282 0
w -146 0.367879 0
w 146 2.718282 0
w -147 0.367879 0
w 147 2.718282 0
w -149 0.367879 0
w 149 2.718282 0
w -150 0.367879 0
w 150 2.718282 0
w -152 0.367879 0
w 152 2.718282 0
w -153 0.367879 0
w 153 2.718282 0
w -155 0.367879 0
w 155 2.718282 0
w -156 0.367879 0
w 156 2.718282 0
w -158 0.367879 0
w 158 2.718282 0
w -159 0.367879 0
w 159 2.718282 0
w -161 0.367879 0
w 161 2.718282 0
w -162 0.367879 0
w 162 2.718282 0
w -164 0.367879 0
w 164 2.718282 0
w -166 0.367879 0
w 166 2.718282 0
w -167 0.367879 0
w 167 2.718282 0
w -169 0.367879 0
w 169 2.718282 0
w -170 0.367879 0
w 170 2.718282 0
w -172 0.367879 0
w 172 2.718282 0
w -173 0.367879 0
w 173 2.718282 0
w -175 0.367879 0
w 175 2.718282 0
w -176 0.367879 0
w 176 2.718282 0
w -178 0.367879 0
w 178 2.718282 0
w -179 0.367879 0
w 179 2.718282 0
w -181 0.367879 0
w 181 2.718282 0
w -182 0.367879 0
w 182 2.718282 0
w -184 0.367879 0
w 184 2.718282 0
w -185 0.367879 0
w 185 2.718282 0
w -187 0.367879 0
w 187 2.718282 0
w -188 0.367879 0
w 188 2.718282 0
w -190 0.367879 0
w 190 2.718282 0
w -191 0.367879 0
w 191 2.718282 0
w -193 0.367879 0
w 193 2.718282 0
w -194 0.367879 0
w 194 2.718282 0
w -196 0.367879 0
w 196 2.718282 0
w -197 0.367879 0
w 197 2.718282 0
w -199 0.367879 0
w 199 2.718282 0
w -200 0.367879 0
w 200 2.718282 0
w -202 0.367879 0
w 202 2.718282 0
w -203 0.367879 0
w 203 2.718282 0
w -205 0.367879 0
w 205 2.718282 0
w -207 0.367879 0
w 207 2.718282 0
w -208 0.367879 0
w 208 2.718282 0
w -210 0.367879 0
w 210 2.718282 0
w -211 0.367879 0
w 211 2.718282 0
w -213 0.367879 0
w 213 2.718282 0
w -214 0.367879 0
w 214 2.718282 0
w -216 0.367879 0
w 216 2.718282 0
w -217 0.367879 0
w 217 2.718282 0
w -219 0.367879 0
w 219 2.718282 0
w -220 0.367879 0
w 220 2.718282 0
w -222 0.367879 0
w 222 2.718282 0
w -223 0.367879 0
w 223 2.718282 0
w -225 0.367879 0
w 225 2.718282 0
w -226 0.367879 0
w 226 2.718282 0
w -228 0.367879 0
w 228 2.718282 0
w -229 0.367879 0
w 229 2.718282 0
w -231 0.367879 0
w 231 2.718282 0
w -232 0.367879 0
w 232 2.718282 0
w -234 0.367879 0
w 234 2.718282 0
w -235 0.367879 0
w 235 2.718282 0
w -237 0.367879 0
w 237 2.718282 0
w -238 0.367879 0
w 238 2.718282 0
w -240 0.367879 0
w 240 2.718282 0
w -241 0.367879 0
w 241 2.718282 0
w -243 0.367879 0
w 243 2.718282 0
w -244 0.367879 0
w 244 2.718282 0
w -246 0.367879 0
w 246 2.718282 0
w -248 0.367879 0
w 248 2.718282 0
w -249 0.367879 0
w 249 2.718282 0
w -251 0.367879 0
w 251 2.718282 0
w -252 0.367879 0
w 252 2.718282 0
w -254 0.367879 0
w 254 2.718282 0
w -255 0.367879 0
w 255 2.718282 0
w -257 0.367879 0
w 257 2.718282 0
w -258 0.367879 0
w 258 2.718282 0
w -260 0.367879 0
w 260 2.718282 0
w -261 0.367879 0
w 261 2.718282 0
w -263 0.367879 0
w 263 2.718282 0
w -264 0.367879 0
w 264 2.718282 0
w -266 0.367879 0
w 266 2.718282 0
w -267 0.367879 0
w 267 2.718282 0
w -269 0.367879 0
w 269 2.718282 0
w -270 0.367879 0
w 270 2.718282 0
w -272 0.367879 0
w 272 2.718282 0
w -273 0.367879 0
w 273 2.718282 0
w -275 0.367879 0
w 275 2.718282 0
w -276 0.367879 0
w 276 2.718282 0
w -278 0.367879 0
w 278 2.718282 0
w -279 0.367879 0
w 279 2.718282 0
w -281 0.367879 0
w 281 2.718282 0
w -282 0.367879 0
w 282 2.718282 0
w -284 0.367879 0
w 284 2.718282 0
w -285 0.367879 0
w 285 2.718282 0
w -287 0.367879 0
w 287 2.718282 0
w -289 0.367879 0
w 289 2.718282 0
w -290 0.367879 0
w 290 2.718282 0
w -292 0.367879 0
w 292 2.718282 0
w -293 0.367879 0
w 293 2.718282 0
w -295 0.367879 0
w 295 2.718282 0
w -296 0.367879 0
w 296 2.718282 0
w -298 0.367879 0
w 298 2.718282 0
w -299 0.367879 0
w 299 2.718282 0
w -301 0.367879 0
w 301 2.718282 0
w -302 0.367879 0
w 302 2.718282 0
w -304 0.367879 0
w 304 2.718282 0
w -305 0.367879 0
w 305 2.718282 0
w -307 0.367879 0
w 307 2.718282 0
w -308 0.367879 0
w 308 2.718282 0
w -310 0.367879 0
w 310 2.718282 0
w -311 0.367879 0
w 311 2.718282 0
w -313 0.367879 0
w 313 2.718282 0
w -314 0.367879 0
w 314 2.718282 0
w -316 0.367879 0
w 316 2.718282 0
w -317 0.367879 0
w 317 2.718282 0
w -319 0.367879 0
w 319 2.718282 0
w -320 0.367879 0
w 320 2.718282 0
w -322 0.367879 0
w 322 2.718282 0
w -323 0.367879 0
w 323 2.718282 0
w -325 0.367879 0
w 325 2.718282 0
w -326 0.367879 0
w 326 2.718282 0
w -328 0.367879 0
w 328 2.718282 0
w -330 0.367879 0
w 330 2.718282 0
w -331 0.367879 0
w 331 2.718282 0
w -333 0.367879 0
w 333 2.718282 0
w -334 0.367879 0
w 334 2.718282 0
w -336 0.367879 0
w 336 2.718282 0
w -337 0.367879 0
w 337 2.718282 0
w -339 0.367879 0
w 339 2.718282 0
w -340 0.367879 0
w 340 2.718282 0
w -342 0.367879 0
w 342 2.718282 0
w -343 0.367879 0
w 343 2.718282 0
w -345 0.367879 0
w 345 2.718282 0
w -346 0.367879 0
w 346 2.718282 0
w -348 0.367879 0
w 348 2.718282 0
w -349 0.367879 0
w 349 2.718282 0
w -351 0.367879 0
w 351 2.718282 0
w -352 0.367879 0
w 352 2.718282 0
w -354 0.367879 0
w 354 2.718282 0
w -355 0.367879 0
w 355 2.718282 0
w -357 0.367879 0
w 357 2.718282 0
w -358 0.367879 0
w 358 2.718282 0
w -360 0.367879 0
w 360 2.718282 0
w -361 0.367879 0
w 361 2.718282 0
w -363 0.367879 0
w 363 2.718282 0
w -364 0.367879 0
w 364 2.718282 0
w -366 0.367879 0
w 366 2.718282 0
w -367 0.367879 0
w 367 2.718282 0
w -369 0.367879 0
w 369 2.718282 0
w -371 0.367879 0
w 371 2.718282 0
w -372 0.367879 0
w 372 2.718282 0
w -374 0.367879 0
w 374 2.718282 0
w -375 0.367879 0
w 375 2.718282 0
w -377 0.367879 0
w 377 2.718282 0
w -378 0.367879 0
w 378 2.718282 0
w -380 0.367879 0
w 380 2.718282 0
w -381 0.367879 0
w 381 2.718282 0
w -383 0.367879 0
w 383 2.718282 0
w -384 0.367879 0
w 384 2.718282 0
w -386 0.367879 0
w 386 2.718282 0
w -387 0.367879 0
w 387 2.718282 0
w -389 0.367879 0
w 389 2.718282 0
w -390 0.367879 0
w 390 2.718282 0
w -392 0.367879 0
w 392 2.718282 0
w -393 0.367879 0
w 393 2.718282 0
w -395 0.367879 0
w 395 2.718282 0
w -396 0.367879 0
w 396 2.718282 0
w -398 0.367879 0
w 398 2.718282 0
w -399 0.367879 0
w 399 2.718282 0
w -401 0.367879 0
w 401 2.718282 0
w -402 0.367879 0
w 402 2.718282 0
w -404 0.367879 0
w 404 2.718282 0
w -405 0.367879 0
w 405 2.718282 0
w -407 0.367879 0
w 407 2.718282 0
w -408 0.367879 0
w 408 2.718282 0
w -410 0.367879 0
w 410 2.718282 0
w -412 0.367879 0
w 412 2.718282 0
w -413 0.367879 0
w 413 2.718282 0
w -415 0.367879 0
w 415 2.718282 0
w -416 0.367879 0
w 416 2.718282 0
w -418 0.367879 0
w 418 2.718282 0
w -419 0.367879 0
w 419 2.718282 0
w -421 0.367879 0
w 421 2.718282 0
w -422 0.367879 0
w 422 2.718282 0
w -424 0.367879 0
w 424 2.718282 0
w -425 0.367879 0
w 425 2.718282 0
w -427 0.367879 0
w 427 2.718282 0
w -428 0.367879 0
w 428 2.718282 0
w -430 0.367879 0
w 430 2.718282 0
w -431 0.367879 0
w 431 2.718282 0
w -433 0.367879 0
w 433 2.718282 0
w -434 0.367879 0
w 434 2.718282 0
w -436 0.367879 0
w 436 2.718282 0
w -437 0.367879 0
w 437 2.718282 0
w -439 0.367879 0
w 439 2.718282 0
w -440 0.367879 0
w 440 2.718282 0
w -442 0.367879 0
w 442 2.718282 0
w -443 0.367879 0
w 443 2.718282 0
w -445 0.367879 0
w 445 2.718282 0
w -446 0.367879 0
w 446 2.718282 0
w -448 0.367879 0
w 448 2.718282 0
w -449 0.367879 0
w 449 2.718282 0
w -451 0.367879 0
w 451 2.718282 0
w -453 0.367879 0
w 453 2.718282 0
w -454 0.367879 0
w 454 2.718282 0
w -456 0.367879 0
w 456 2.718282 0
w -457 0.367879 0
w 457 2.718282 0
w -459 0.367879 0
w 459 2.718282 0
w -460 0.367879 0
w 460 2.718282 0
w -462 0.367879 0
w 462 2.718282 0
w -463 0.367879 0
w 463 2.718282 0
w -465 0.367879 0
w 465 2.718282 0
w -466 0.367879 0
w 466 2.718282 0
w -468 0.367879 0
w 468 2.718282 0
w -469 0.367879 0
w 469 2.718282 0
w -471 0.367879 0
w 471 2.718282 0
w -472 0.367879 0
w 472 2.718282 0
w -474 0.367879 0
w 474 2.718282 0
w -475 0.367879 0
w 475 2.718282 0
w -477 0.367879 0
w 477 2.718282 0
w -478 0.367879 0
w 478 2.718282 0
w -480 0.367879 0
w 480 2.718282 0
w -481 0.367879 0
w 481 2.718282 0
w -483 0.367879 0
w 483 2.718282 0
w -484 0.367879 0
w 484 2.718282 0
w -486 0.367879 0
w 486 2.718282 0
w -487 0.367879 0
w 487 2.718282 0
w -489 0.367879 0
w 489 2.718282 0
w -490 0.367879 0
w 490 2.718282 0
w -492 0.367879 0
w 492 2.718282 0
w -494 0.367879 0
w 494 2.718282 0
w -495 0.367879 0
w 495 2.718282 0
w -497 0.367879 0
w 497 2.718282 0
w -498 0.367879 0
w 498 2.718282 0
w -500 0.367879 0
w 500 2.718282 0
w -501 0.367879 0
w 501 2.718282 0
w -503 0.367879 0
w 503 2.718282 0
w -504 0.367879 0
w 504 2.718282 0
w -506 0.367879 0
w 506 2.718282 0
w -507 0.367879 0
w 507 2.718282 0
w -509 0.367879 0
w 509 2.718282 0
w -510 0.367879 0
w 510 2.718282 0
w -512 0.367879 0
w 512 2.718282 0
w -513 0.367879 0
w 513 2.718282 0
w -515 0.367879 0
w 515 2.718282 0
w -516 0.367879 0
w 516 2.718282 0
w -518 0.367879 0
w 518 2.718282 0
w -519 0.367879 0
w 519 2.718282 0
w -521 0.367879 0
w 521 2.718282 0
w -522 0.367879 0
w 522 2.718282 0
w -524 0.367879 0
w 524 2.718282 0
w -525 0.367879 0
w 525 2.718282 0
w -527 0.367879 0
w 527 2.718282 0
w -528 0.367879 0
w 528 2.718282 0
w -530 0.367879 0
w 530 2.718282 0
w -531 0.367879 0
w 531 2.718282 0
w -533 0.367879 0
w 533 2.718282 0
w -535 0.367879 0
w 535 2.718282 0
w -537 0.367879 0
w 537 2.718282 0
w -539 0.367879 0
w 539 2.718282 0
w -541 0.367879 0
w 541 2.718282 0
w -543 0.367879 0
w 543 2.718282 0
w -545 0.367879 0
w 545 2.718282 0
w -547 0.367879 0
w 547 2.718282 0
w -549 0.367879 0
w 549 2.718282 0
w -551 0.367879 0
w 551 2.718282 0
w -553 0.367879 0
w 553 2.718282 0
w -555 0.367879 0
w 555 2.718282 0
w -557 0.367879 0
w 557 2.718282 0
w -559 0.367879 0
w 559 2.718282 0
2 1 4 0
2 -1 -4 0
-2 1 -4 0
-2 -1 4 0
3 1 42 0
3 -1 -42 0
-3 1 -42 0
-3 -1 42 0
5 4 7 0
5 -4 -7 0
-5 4 -7 0
-5 -4 7 0
6 4 45 0
6 -4 -45 0
-6 4 -45 0
-6 -4 45 0
8 7 10 0
8 -7 -10 0
-8 7 -10 0
-8 -7 10 0
9 7 48 0
9 -7 -48 0
-9 7 -48 0
-9 -7 48 0
11 10 13 0
11 -10 -13 0
-11 10 -13 0
-11 -10 13 0
12 10 51 0
12 -10 -51 0
-12 10 -51 0
-12 -10 51 0
14 13 16 0
14 -13 -16 0
-14 13 -16 0
-14 -13 16 0
15 13 54 0
15 -13 -54 0
-15 13 -54 0
-15 -13 54 0
17 16 19 0
17 -16 -19 0
-17 16 -19 0
-17 -16 19 0
18 16 57 0
18 -16 -57 0
-18 16 -57 0
-18 -16 57 0
20 19 22 0
20 -19 -22 0
-20 19 -22 0
-20 -19 22 0
21 19 60 0
21 -19 -60 0
-21 19 -60 0
-21 -19 60 0
23 22 25 0
23 -22 -25 0
-23 22 -25 0
-23 -22 25 0
24 22 63 0
24 -22 -63 0
-24 22 -63 0
-24 -22 63 0
26 25 28 0
26 -25 -28 0
-26 25 -28 0
-26 -25 28 0
27 25 66 0
27 -25 -66 0
-27 25 -66 0
-27 -25 66 0
29 28 31 0
29 -28 -31 0
-29 28 -31 0
-29 -28 31 0
30 28 69 0
30 -28 -69 0
-30 28 -69 0
-30 -28 69 0
32 31 34 0
32 -31 -34 0
-32 31 -34 0
-32 -31 34 0
33 31 72 0
33 -31 -72 0
-33 31 -72 0
-33 -31 72 0
35 34 37 0
35 -34 -37 0
-35 34 -37 0
-35 -34 37 0
36 34 75 0
36 -34 -75 0
-36 34 -75 0
-36 -34 75 0
38 37 40 0
38 -37 -40 0
-38 37 -40 0
-38 -37 40 0
39 37 78 0
39 -37 -78 0
-39 37 -78 0
-39 -37 78 0
41 40 81 0
41 -40 -81 0
-41 40 -81 0
-41 -40 81 0
43 42 45 0
43 -42 -45 0
-43 42 -45 0
-43 -42 45 0
44 42 83 0
44 -42 -83 0
-44 42 -83 0
-44 -42 83 0
46 45 48 0
46 -45 -48 0
-46 45 -48 0
-46 -45 48 0
47 45 86 0
47 -45 -86 0
-47 45 -86 0
-47 -45 86 0
49 48 51 0
49 -48 -51 0
-49 48 -51 0
-49 -48 51 0
50 48 89 0
50 -48 -89 0
-50 48 -89 0
-50 -48 89 0
52 51 54 0
52 -51 -54 0
-52 51 -54 0
-52 -51 54 0
53 51 92 0
53 -51 -92 0
-53 51 -92 0
-53 -51 92 0
55 54 57 0
55 -54 -57 0
-55 54 -57 0
-55 -54 57 0
56 54 95 0
56 -54 -95 0
-56 54 -95 0
-56 -54 95 0
58 57 60 0
58 -57 -60 0
-58 57 -60 0
-58 -57 60 0
59 57 98 0
59 -57 -98 0
-59 57 -98 0
-59 -57 98 0
61 60 63 0
61 -60 -63 0
-61 60 -63 0
-61 -60 63 0
62 60 101 0
62 -60 -101 0
-62 60 -101 0
-62 -60 101 0
64 63 66 0
64 -63 -66 0
-64 63 -66 0
-64 -63 66 0
65 63 104 0
65 -63 -104 0
-65 63 -104 0
-65 -63 104 0
67 66 69 0
67 -66 -69 0
-67 66 -69 0
-67 -66 69 0
68 66 107 0
68 -66 -107 0
-68 66 -107 0
-68 -66 107 0
70 69 72 0
70 -69 -72 0
-70 69 -72 0
-70 -69 72 0
71 69 110 0
71 -69 -110 0
-71 69 -110 0
-71 -69 110 0
73 72 75 0
73 -72 -75 0
-73 72 -75 0
-73 -72 75 0
74 72 113 0
74 -72 -113 0
-74 72 -113 0
-74 -72 113 0
76 75 78 0
76 -75 -78 0
-76 75 -78 0
-76 -75 78 0
77 75 116 0
77 -75 -116 0
-77 75 -116 0
-77 -75 116 0
79 78 81 0
79 -78 -81 0
-79 78 -81 0
-79 -78 81 0
80 78 119 0
80 -78 -119 0
-80 78 -119 0
-80 -78 119 0
82 81 122 0
82 -81 -122 0
-82 81 -122 0
-82 -81 122 0
84 83 86 0
84 -83 -86 0
-84 83 -86 0
-84 -83 86 0
85 83 124 0
85 -83 -124 0
-85 83 -124 0
-85 -83 124 0
87 86 89 0
87 -86 -89 0
-87 86 -89 0
-87 -86 89 0
88 86 127 0
88 -86 -127 0
-88 86 -127 0
-88 -86 127 0
90 89 92 0
90 -89 -92 0
-90 89 -92 0
-90 -89 92 0
91 89 130 0
91 -89 -130 0
-91 89 -130 0
-91 -89 130 0
93 92 95 0
93 -92 -95 0
-93 92 -95 0
-93 -92 95 0
94 92 133 0
94 -92 -133 0
-94 92 -133 0
-94 -92 133 0
96 95 98 0
96 -95 -98 0
-96 95 -98 0
-96 -95 98 0
97 95 136 0
97 -95 -136 0
-97 95 -136 0
-97 -95 136 0
99 98 101 0
99 -98 -101 0
-99 98 -101 0
-99 -98 101 0
100 98 139 0
100 -98 -139 0
-100 98 -139 0
-100 -98 139 0
102 101 104 0
102 -101 -104 0
-102 101 -104 0
-102 -101 104 0
103 101 142 0
103 -101 -142 0
-103 101 -142 0
-103 -101 142 0
105 104 107 0
105 -104 -107 0
-105 104 -107 0
-105 -104 107 0
106 104 145 0
106 -104 -145 0
-106 104 -145 0
-106 -104 145 0
108 107 110 0
108 -107 -110 0
-108 107 -110 0
-108 -107 110 0
109 107 148 0
109 -107 -148 0
-109 107 -148 0
-109 -107 148 0
111 110 113 0
111 -110 -113 0
-111 110 -113 0
-111 -110 113 0
112 110 151 0
112 -110 -151 0
-112 110 -151 0
-112 -110 151 0
114 113 116 0
114 -113 -116 0
-114 113 -116 0
-114 -113 116 0
115 113 154 0
115 -113 -154 0
-115 113 -154 0
-115 -113 154 0
117 116 119 0
117 -116 -119 0
-117 116 -119 0
-117 -116 119 0
118 116 157 0
118 -116 -157 0
-118 116 -157 0
-118 -116 157 0
120 119 122 0
120 -119 -122 0
-120 119 -122 0
-120 -119 122 0
121 119 160 0
121 -119 -160 0
-121 119 -160 0
-121 -119 160 0
123 122 163 0
123 -122 -163 0
-123 122 -163 0
-123 -122 163 0
125 124 127 0
125 -124 -127 0
-125 124 -127 0
-125 -124 127 0
126 124 165 0
126 -124 -165 0
-126 124 -165 0
-126 -124 165 0
128 127 130 0
128 -127 -130 0
-128 127 -130 0
-128 -127 130 0
129 127 168 0
129 -127 -168 0
-129 127 -168 0
-129 -127 168 0
131 130 133 0
131 -130 -133 0
-131 130 -133 0
-131 -130 133 0
132 130 171 0
132 -130 -171 0
-132 130 -171 0
-132 -130 171 0
134 133 136 0
134 -133 -136 0
-134 133 -136 0
-134 -133 136 0
135 133 174 0
135 -133 -174 0
-135 133 -174 0
-135 -133 174 0
137 136 139 0
137 -136 -139 0
-137 136 -139 0
-137 -136 139 0
138 136 177 0
138 -136 -177 0
-138 136 -177 0
-138 -136 177 0
140 139 142 0
140 -139 -142 0
-140 139 -142 0
-140 -139 142 0
141 139 180 0
141 -139 -180 0
-141 139 -180 0
-141 -139 180 0
143 142 145 0
143 -142 -145 0
-143 142 -145 0
-143 -142 145 0
144 142 183 0
144 -142 -183 0
-144 142 -183 0
-144 -142 183 0
146 145 148 0
146 -145 -148 0
-146 145 -148 0
-146 -145 148 0
147 145 186 0
147 -145 -186 0
-147 145 -186 0
-147 -145 186 0
149 148 151 0
149 -148 -151 0
-149 148 -151 0
-149 -148 151 0
150 148 189 0
150 -148 -189 0
-150 148 -189 0
-150 -148 189 0
152 151 154 0
152 -151 -154 0
-152 151 -154 0
-152 -151 154 0
153 151 192 0
153 -151 -192 0
-153 151 -192 0
-153 -151 192 0
155 154 157 0
155 -154 -157 0
-155 154 -157 0
-155 -154 157 0
156 154 195 0
156 -154 -195 0
-156 154 -195 0
-156 -154 195 0
158 157 160 0
158 -157 -160 0
-158 157 -160 0
-158 -157 160 0
159 157 198 0
159 -157 -198 0
-159 157 -198 0
-159 -157 198 0
161 160 163 0
161 -160 -163 0
-161 160 -163 0
-161 -160 163 0
162 160 201 0
162 -160 -201 0
-162 160 -201 0
-162 -160 201 0
164 163 204 0
164 -163 -204 0
-164 163 -204 0
-164 -163 204 0
166 165 168 0
166 -165 -168 0
-166 165 -168 0
-166 -165 168 0
167 165 206 0
167 -165 -206 0
-167 165 -206 0
-167 -165 206 0
169 168 171 0
169 -168 -171 0
-169 168 -171 0
-169 -168 171 0
170 168 209 0
170 -168 -209 0
-170 168 -209 0
-170 -168 209 0
172 171 174 0
172 -171 -174 0
-172 171 -174 0
-172 -171 174 0
173 171 212 0
173 -171 -212 0
-173 171 -212 0
-173 -171 212 0
175 174 177 0
175 -174 -177 0
-175 174 -177 0
-175 -174 177 0
176 174 215 0
176 -174 -215 0
-176 174 -215 0
-176 -174 215 0
178 177 180 0
178 -177 -180 0
-178 177 -180 0
-178 -177 180 0
179 177 218 0
179 -177 -218 0
-179 177 -218 0
-179 -177 218 0
181 180 183 0
181 -180 -183 0
-181 180 -183 0
-181 -180 183 0
182 180 221 0
182 -180 -221 0
-182 180 -221 0
-182 -180 221 0
184 183 186 0
184 -183 -186 0
-184 183 -186 0
-184 -183 186 0
185 183 224 0
185 -183 -224 0
-185 183 -224 0
-185 -183 224 0
187 186 189 0
187 -186 -189 0
-187 186 -189 0
-187 -186 189 0
188 186 227 0
188 -186 -227 0
-188 186 -227 0
-188 -186 227 0
190 189 192 0
190 -189 -192 0
-190 189 -192 0
-190 -189 192 0
191 189 230 0
191 -189 -230 0
-191 189 -230 0
-191 -189 230 0
193 192 195 0
193 -192 -195 0
-193 192 -195 0
-193 -192 195 0
194 192 233 0
194 -192 -233 0
-194 192 -233 0
-194 -192 233 0
196 195 198 0
196 -195 -198 0
-196 195 -198 0
-196 -195 198 0
197 195 236 0
197 -195 -236 0
-197 195 -236 0
-197 -195 236 0
199 198 201 0
199 -198 -201 0
-199 198 -201 0
-199 -198 201 0
200 198 239 0
200 -198 -239 0
-200 198 -239 0
-200 -198 239 0
202 201 204 0
202 -201 -204 0
-202 201 -204 0
-202 -201 204 0
203 201 242 0
203 -201 -242 0
-203 201 -242 0
-203 -201 242 0
205 204 245 0
205 -204 -245 0
-205 204 -245 0
-205 -204 245 0
207 206 209 0
207 -206 -209 0
-207 206 -209 0
-207 -206 209 0
208 206 247 0
208 -206 -247 0
-208 206 -247 0
-208 -206 247 0
210 209 212 0
210 -209 -212 0
-210 209 -212 0
-210 -209 212 0
211 209 250 0
211 -209 -250 0
-211 209 -250 0
-211 -209 250 0
213 212 215 0
213 -212 -215 0
-213 212 -215 0
-213 -212 215 0
214 212 253 0
214 -212 -253 0
-214 212 -253 0
-214 -212 253 0
216 215 218 0
216 -215 -218 0
-216 215 -218 0
-216 -215 218 0
217 215 256 0
217 -215 -256 0
-217 215 -256 0
-217 -215 256 0
219 218 221 0
219 -218 -221 0
-219 218 -221 0
-219 -218 221 0
220 218 259 0
220 -218 -259 0
-220 218 -259 0
-220 -218 259 0
222 221 224 0
222 -221 -224 0
-222 221 -224 0
-222 -221 224 0
223 221 262 0
223 -221 -262 0
-223 221 -262 0
-223 -221 262 0
225 224 227 0
225 -224 -227 0
-225 224 -227 0
-225 -224 227 0
226 224 265 0
226 -224 -265 0
-226 224 -265 0
-226 -224 265 0
228 227 230 0
228 -227 -230 0
-228 227 -230 0
-228 -227 230 0
229 227 268 0
229 -227 -268 0
-229 227 -268 0
-229 -227 268 0
231 230 233 0
231 -230 -233 0
-231 230 -233 0
-231 -230 233 0
232 230 271 0
232 -230 -271 0
-232 230 -271 0
-232 -230 271 0
234 233 236 0
234 -233 -236 0
-234 233 -236 0
-234 -233 236 0
235 233 274 0
235 -233 -274 0
-235 233 -274 0
-235 -233 274 0
237 236 239 0
237 -236 -239 0
-237 236 -239 0
-237 -236 239 0
238 236 277 0
238 -236 -277 0
-238 236 -277 0
-238 -236 277 0
240 239 242 0
240 -239 -242 0
-240 239 -242 0
-240 -239 242 0
241 239 280 0
241 -239 -280 0
-241 239 -280 0
-241 -239 280 0
243 242 245 0
243 -242 -245 0
-243 242 -245 0
-243 -242 245 0
244 242 283 0
244 -242 -283 0
-244 242 -283 0
-244 -242 283 0
246 245 286 0
246 -245 -286 0
-246 245 -286 0
-246 -245 286 0
248 247 250 0
248 -247 -250 0
-248 247 -250 0
-248 -247 250 0
249 247 288 0
249 -247 -288 0
-249 247 -288 0
-249 -247 288 0
251 250 253 0
251 -250 -253 0
-251 250 -253 0
-251 -250 253 0
252 250 291 0
252 -250 -291 0
-252 250 -291 0
-252 -250 291 0
254 253 256 0
254 -253 -256 0
-254 253 -256 0
-254 -253 256 0
255 253 294 0
255 -253 -294 0
-255 253 -294 0
-255 -253 294 0
257 256 259 0
257 -256 -259 0
-257 256 -259 0
-257 -256 259 0
258 256 297 0
258 -256 -297 0
-258 256 -297 0
-258 -256 297 0
260 259 262 0
260 -259 -262 0
-260 259 -262 0
-260 -259 262 0
261 259 300 0
261 -259 -300 0
-261 259 -300 0
-261 -259 300 0
263 262 265 0
263 -262 -265 0
-263 262 -265 0
-263 -262 265 0
264 262 303 0
264 -262 -303 0
-264 262 -303 0
-264 -262 303 0
266 265 268 0
266 -265 -268 0
-266 265 -268 0
-266 -265 268 0
267 265 306 0
267 -265 -306 0
-267 265 -306 0
-267 -265 306 0
269 268 271 0
269 -268 -271 0
-269 268 -271 0
-269 -268 271 0
270 268 309 0
270 -268 -309 0
-270 268 -309 0
-270 -268 309 0
272 271 274 0
272 -271 -274 0
-272 271 -274 0
-272 -271 274 0
273 271 312 0
273 -271 -312 0
-273 271 -312 0
-273 -271 312 0
275 274 277 0
275 -274 -277 0
-275 274 -277 0
-275 -274 277 0
276 274 315 0
276 -274 -315 0
-276 274 -315 0
-276 -274 315 0
278 277 280 0
278 -277 -280 0
-278 277 -280 0
-278 -277 280 0
279 277 318 0
279 -277 -318 0
-279 277 -318 0
-279 -277 318 0
281 280 283 0
281 -280 -283 0
-281 280 -283 0
-281 -280 283 0
282 280 321 0
282 -280 -321 0
-282 280 -321 0
-282 -280 321 0
284 283 286 0
284 -283 -286 0
-284 283 -286 0
-284 -283 286 0
285 283 324 0
285 -283 -324 0
-285 283 -324 0
-285 -283 324 0
287 286 327 0
287 -286 -327 0
-287 286 -327 0
-287 -286 327 0
289 288 291 0
289 -288 -291 0
-289 288 -291 0
-289 -288 291 0
290 288 329 0
290 -288 -329 0
-290 288 -329 0
-290 -288 329 0
292 291 294 0
292 -291 -294 0
-292 291 -294 0
-292 -291 294 0
293 291 332 0
293 -291 -332 0
-293 291 -332 0
-293 -291 332 0
295 294 297 0
295 -294 -297 0
-295 294 -297 0
-295 -294 297 0
296 294 335 0
296 -294 -335 0
-296 294 -335 0
-296 -294 335 0
298 297 300 0
298 -297 -300 0
-298 297 -300 0
-298 -297 300 0
299 297 338 0
299 -297 -338 0
-299 297 -338 0
-299 -297 338 0
301 300 303 0
301 -300 -303 0
-301 300 -303 0
-301 -300 303 0
302 300 341 0
302 -300 -341 0
-302 300 -341 0
-302 -300 341 0
304 303 306 0
304 -303 -306 0
-304 303 -306 0
-304 -303 306 0
305 303 344 0
305 -303 -344 0
-305 303 -344 0
-305 -303 344 0
307 306 309 0
307 -306 -309 0
-307 306 -309 0
-307 -306 309 0
308 306 347 0
308 -306 -347 0
-308 306 -347 0
-308 -306 347 0
310 309 312 0
310 -309 -312 0
-310 309 -312 0
-310 -309 312 0
311 309 350 0
311 -309 -350 0
-311 309 -350 0
-311 -309 350 0
313 312 315 0
313 -312 -315 0
-313 312 -315 0
-313 -312 315 0
314 312 353 0
314 -312 -353 0
-314 312 -353 0
-314 -312 353 0
316 315 318 0
316 -315 -318 0
-316 315 -318 0
-316 -315 318 0
317 315 356 0
317 -315 -356 0
-317 315 -356 0
-317 -315 356 0
319 318 321 0
319 -318 -321 0
-319 318 -321 0
-319 -318 321 0
320 318 359 0
320 -318 -359 0
-320 318 -359 0
-320 -318 359 0
322 321 324 0
322 -321 -324 0
-322 321 -324 0
-322 -321 324 0
323 321 362 0
323 -321 -362 0
-323 321 -362 0
-323 -321 362 0
325 324 327 0
325 -324 -327 0
-325 324 -327 0
-325 -324 327 0
326 324 365 0
326 -324 -365 0
-326 324 -365 0
-326 -324 365 0
328 327 368 0
328 -327 -368 0
-328 327 -368 0
-328 -327 368 0
330 329 332 0
330 -329 -332 0
-330 329 -332 0
-330 -329 332 0
331 329 370 0
331 -329 -370 0
-331 329 -370 0
-331 -329 370 0
333 332 335 0
333 -332 -335 0
-333 332 -335 0
-333 -332 335 0
334 332 373 0
334 -332 -373 0
-334 332 -373 0
-334 -332 373 0
336 335 338 0
336 -335 -338 0
-336 335 -338 0
-336 -335 338 0
337 335 376 0
337 -335 -376 0
-337 335 -376 0
-337 -335 376 0
339 338 341 0
339 -338 -341 0
-339 338 -341 0
-339 -338 341 0
340 338 379 0
340 -338 -379 0
-340 338 -379 0
-340 -338 379 0
342 341 344 0
342 -341 -344 0
-342 341 -344 0
-342 -341 344 0
343 341 382 0
343 -341 -382 0
-343 341 -382 0
-343 -341 382 0
345 344 347 0
345 -344 -347 0
-345 344 -347 0
-345 -344 347 0
346 344 385 0
346 -344 -385 0
-346 344 -385 0
-346 -344 385 0
348 347 350 0
348 -347 -350 0
-348 347 -350 0
-348 -347 350 0
349 347 388 0
349 -347 -388 0
-349 347 -388 0
-349 -347 388 0
351 350 353 0
351 -350 -353 0
-351 350 -353 0
-351 -350 353 0
352 350 391 0
352 -350 -391 0
-352 350 -391 0
-352 -350 391 0
354 353 356 0
354 -353 -356 0
-354 353 -356 0
-354 -353 356 0
355 353 394 0
355 -353 -394 0
-355 353 -394 0
-355 -353 394 0
357 356 359 0
357 -356 -359 0
-357 356 -359 0
-357 -356 359 0
358 356 397 0
358 -356 -397 0
-358 356 -397 0
-358 -356 397 0
360 359 362 0
360 -359 -362 0
-360 359 -362 0
-360 -359 362 0
361 359 400 0
361 -359 -400 0
-361 359 -400 0
-361 -359 400 0
363 362 365 0
363 -362 -365 0
-363 362 -365 0
-363 -362 365 0
364 362 403 0
364 -362 -403 0
-364 362 -403 0
-364 -362 403 0
366 365 368 0
366 -365 -368 0
-366 365 -368 0
-366 -365 368 0
367 365 406 0
367 -365 -406 0
-367 365 -406 0
-367 -365 406 0
369 368 409 0
369 -368 -409 0
-369 368 -409 0
-369 -368 409 0
371 370 373 0
371 -370 -373 0
-371 370 -373 0
-371 -370 373 0
372 370 411 0
372 -370 -411 0
-372 370 -411 0
-372 -370 411 0
374 373 376 0
374 -373 -376 0
-374 373 -376 0
-374 -373 376 0
375 373 414 0
375 -373 -414 0
-375 373 -414 0
-375 -373 414 0
377 376 379 0
377 -376 -379 0
-377 376 -379 0
-377 -376 379 0
378 376 417 0
378 -376 -417 0
-378 376 -417 0
-378 -376 417 0
380 379 382 0
380 -379 -382 0
-380 379 -382 0
-380 -379 382 0
381 379 420 0
381 -379 -420 0
-381 379 -420 0
-381 -379 420 0
383 382 385 0
383 -382 -385 0
-383 382 -385 0
-383 -382 385 0
384 382 423 0
384 -382 -423 0
-384 382 -423 0
-384 -382 423 0
386 385 388 0
386 -385 -388 0
-386 385 -388 0
-386 -385 388 0
387 385 426 0
387 -385 -426 0
-387 385 -426 0
-387 -385 426 0
389 388 391 0
389 -388 -391 0
-389 388 -391 0
-389 -388 391 0
390 388 429 0
390 -388 -429 0
-390 388 -429 0
-390 -388 429 0
392 391 394 0
392 -391 -394 0
-392 391 -394 0
-392 -391 394 0
393 391 432 0
393 -391 -432 0
-393 391 -432 0
-393 -391 432 0
395 394 397 0
395 -394 -397 0
-395 394 -397 0
-395 -394 397 0
396 394 435 0
396 -394 -435 0
-396 394 -435 0
-396 -394 435 0
398 397 400 0
398 -397 -400 0
-398 397 -400 0
-398 -397 400 0
399 397 438 0
399 -397 -438 0
-399 397 -438 0
-399 -397 438 0
401 400 403 0
401 -400 -403 0
-401 400 -403 0
-401 -400 403 0
402 400 441 0
402 -400 -441 0
-402 400 -441 0
-402 -400 441 0
404 403 406 0
404 -403 -406 0
-404 403 -406 0
-404 -403 406 0
405 403 444 0
405 -403 -444 0
-405 403 -444 0
-405 -403 444 0
407 406 409 0
407 -406 -409 0
-407 406 -409 0
-407 -406 409 0
408 406 447 0
408 -406 -447 0
-408 406 -447 0
-408 -406 447 0
410 409 450 0
410 -409 -450 0
-410 409 -450 0
-410 -409 450 0
412 411 414 0
412 -411 -414 0
-412 411 -414 0
-412 -411 414 0
413 411 452 0
413 -411 -452 0
-413 411 -452 0
-413 -411 452 0
415 414 417 0
415 -414 -417 0
-415 414 -417 0
-415 -414 417 0
416 414 455 0
416 -414 -455 0
-416 414 -455 0
-416 -414 455 0
418 417 420 0
418 -417 -420 0
-418 417 -420 0
-418 -417 420 0
419 417 458 0
419 -417 -458 0
-419 417 -458 0
-419 -417 458 0
421 420 423 0
421 -420 -423 0
-421 420 -423 0
-421 -420 423 0
422 420 461 0
422 -420 -461 0
-422 420 -461 0
-422 -420 461 0
424 423 426 0
424 -423 -426 0
-424 423 -426 0
-424 -423 426 0
425 423 464 0
425 -423 -464 0
-425 423 -464 0
-425 -423 464 0
427 426 429 0
427 -426 -429 0
-427 426 -429 0
-427 -426 429 0
428 426 467 0
428 -426 -467 0
-428 426 -467 0
-428 -426 467 0
430 429 432 0
430 -429 -432 0
-430 429 -432 0
-430 -429 432 0
431 429 470 0
431 -429 -470 0
-431 429 -470 0
-431 -429 470 0
433 432 435 0
433 -432 -435 0
-433 432 -435 0
-433 -432 435 0
434 432 473 0
434 -432 -473 0
-434 432 -473 0
-434 -432 473 0
436 435 438 0
436 -435 -438 0
-436 435 -438 0
-436 -435 438 0
437 435 476 0
437 -435 -476 0
-437 435 -476 0
-437 -435 476 0
439 438 441 0
439 -438 -441 0
-439 438 -441 0
-439 -438 441 0
440 438 479 0
440 -438 -479 0
-440 438 -479 0
-440 -438 479 0
442 441 444 0
442 -441 -444 0
-442 441 -444 0
-442 -441 444 0
443 441 482 0
443 -441 -482 0
-443 441 -482 0
-443 -441 482 0
445 444 447 0
445 -444 -447 0
-445 444 -447 0
-445 -444 447 0
446 444 485 0
446 -444 -485 0
-446 444 -485 0
-446 -444 485 0
448 447 450 0
448 -447 -450 0
-448 447 -450 0
-448 -447 450 0
449 447 488 0
449 -447 -488 0
-449 447 -488 0
-449 -447 488 0
451 450 491 0
451 -450 -491 0
-451 450 -491 0
-451 -450 491 0
453 452 455 0
453 -452 -455 0
-453 452 -455 0
-453 -452 455 0
454 452 493 0
454 -452 -493 0
-454 452 -493 0
-454 -452 493 0
456 455 458 0
456 -455 -458 0
-456 455 -458 0
-456 -455 458 0
457 455 496 0
457 -455 -496 0
-457 455 -496 0
-457 -455 496 0
459 458 461 0
459 -458 -461 0
-459 458 -461 0
-459 -458 461 0
460 458 499 0
460 -458 -499 0
-460 458 -499 0
-460 -458 499 0
462 461 464 0
462 -461 -464 0
-462 461 -464 0
-462 -461 464 0
463 461 502 0
463 -461 -502 0
-463 461 -502 0
-463 -461 502 0
465 464 467 0
465 -464 -467 0
-465 464 -467 0
-465 -464 467 0
466 464 505 0
466 -464 -505 0
-466 464 -505 0
-466 -464 505 0
468 467 470 0
468 -467 -470 0
-468 467 -470 0
-468 -467 470 0
469 467 508 0
469 -467 -508 0
-469 467 -508 0
-469 -467 508 0
471 470 473 0
471 -470 -473 0
-471 470 -473 0
-471 -470 473 0
472 470 511 0
472 -470 -511 0
-472 470 -511 0
-472 -470 511 0
474 473 476 0
474 -473 -476 0
-474 473 -476 0
-474 -473 476 0
475 473 514 0
475 -473 -514 0
-475 473 -514 0
-475 -473 514 0
477 476 479 0
477 -476 -479 0
-477 476 -479 0
-477 -476 479 0
478 476 517 0
478 -476 -517 0
-478 476 -517 0
-478 -476 517 0
480 479 482 0
480 -479 -482 0
-480 479 -482 0
-480 -479 482 0
481 479 520 0
481 -479 -520 0
-481 479 -520 0
-481 -479 520 0
483 482 485 0
483 -482 -485 0
-483 482 -485 0
-483 -482 485 0
484 482 523 0
484 -482 -523 0
-484 482 -523 0
-484 -482 523 0
486 485 488 0
486 -485 -488 0
-486 485 -488 0
-486 -485 488 0
487 485 526 0
487 -485 -526 0
-487 485 -526 0
-487 -485 526 0
489 488 491 0
489 -488 -491 0
-489 488 -491 0
-489 -488 491 0
490 488 529 0
490 -488 -529 0
-490 488 -529 0
-490 -488 529 0
492 491 532 0
492 -491 -532 0
-492 491 -532 0
-492 -491 532 0
494 493 496 0
494 -493 -496 0
-494 493 -496 0
-494 -493 496 0
495 493 534 0
495 -493 -534 0
-495 493 -534 0
-495 -493 534 0
497 496 499 0
497 -496 -499 0
-497 496 -499 0
-497 -496 499 0
498 496 536 0
498 -496 -536 0
-498 496 -536 0
-498 -496 536 0
500 499 502 0
500 -499 -502 0
-500 499 -502 0
-500 -499 502 0
501 499 538 0
501 -499 -538 0
-501 499 -538 0
-501 -499 538 0
503 502 505 0
503 -502 -505 0
-503 502 -505 0
-503 -502 505 0
504 502 540 0
504 -502 -540 0
-504 502 -540 0
-504 -502 540 0
506 505 508 0
506 -505 -508 0
-506 505 -508 0
-506 -505 508 0
507 505 542 0
507 -505 -542 0
-507 505 -542 0
-507 -505 542 0
509 508 511 0
509 -508 -511 0
-509 508 -511 0
-509 -508 511 0
510 508 544 0
510 -508 -544 0
-510 508 -544 0
-510 -508 544 0
512 511 514 0
512 -511 -514 0
-512 511 -514 0
-512 -511 514 0
513 511 546 0
513 -511 -546 0
-513 511 -546 0
-513 -511 546 0
515 514 517 0
515 -514 -517 0
-515 514 -517 0
-515 -514 517 0
516 514 548 0
516 -514 -548 0
-516 514 -548 0
-516 -514 548 0
518 517 520 0
518 -517 -520 0
-518 517 -520 0
-518 -517 520 0
519 517 550 0
519 -517 -550 0
-519 517 -550 0
-519 -517 550 0
521 520 523 0
521 -520 -523 0
-521 520 -523 0
-521 -520 523 0
522 520 552 0
522 -520 -552 0
-522 520 -552 0
-522 -520 552 0
524 523 526 0
524 -523 -526 0
-524 523 -526 0
-524 -523 526 0
525 523 554 0
525 -523 -554 0
-525 523 -554 0
-525 -523 554 0
527 526 529 0
527 -526 -529 0
-527 526 -529 0
-527 -526 529 0
528 526 556 0
528 -526 -556 0
-528 526 -556 0
-528 -526 556 0
530 529 532 0
530 -529 -532 0
-530 529 -532 0
-530 -529 532 0
531 529 558 0
531 -529 -558 0
-531 529 -558 0
-531 -529 558 0
533 532 560 0
533 -532 -560 0
-533 532 -560 0
-533 -532 560 0
535 534 536 0
535 -534 -536 0
-535 534 -536 0
-535 -534 536 0
537 536 538 0
537 -536 -538 0
-537 536 -538 0
-537 -536 538 0
539 538 540 0
539 -538 -540 0
-539 538 -540 0
-539 -538 540 0
541 540 542 0
541 -540 -542 0
-541 540 -542 0
-541 -540 542 0
543 542 544 0
543 -542 -544 0
-543 542 -544 0
-543 -542 544 0
545 544 546 0
545 -544 -546 0
-545 544 -546 0
-545 -544 546 0
547 546 548 0
547 -546 -548 0
-547 546 -548 0
-547 -546 548 0
549 548 550 0
549 -548 -550 0
-549 548 -550 0
-549 -548 550 0
551 550 552 0
551 -550 -552 0
-551 550 -552 0
-551 -550 552 0
553 552 554 0
553 -552 -554 0
-553 552 -554 0
-553 -552 554 0
555 554 556 0
555 -554 -556 0
-555 554 -556 0
-555 -554 556 0
557 556 558 0
557 -556 -558 0
-557 556 -558 0
-557 -556 558 0
559 558 560 0
559 -558 -560 0
-559 558 -560 0
-559 -558 560 0
